c *********************************
c * Circuit generated by BenCGen
c *
c * Multiplexer_8
c *
c * Ports with 1 gate(s): 4
c * Ports with 2 gate(s): 9
c * Ports with 3 gate(s): 8
c * Ports with 8 gate(s): 1
c * Total gates: 22
c *********************************
p cnf 33 76
1 14 0
-1 -14 0
1 -13 0
14 -13 0
-1 -14 13 0
9 31 0
-9 -31 0
10 32 0
-10 -32 0
11 33 0
-11 -33 0
31 -15 0
32 -15 0
33 -15 0
-31 -32 -33 15 0
9 -16 0
32 -16 0
33 -16 0
-9 -32 -33 16 0
31 -17 0
10 -17 0
33 -17 0
-31 -10 -33 17 0
9 -18 0
10 -18 0
33 -18 0
-9 -10 -33 18 0
31 -19 0
32 -19 0
11 -19 0
-31 -32 -11 19 0
9 -20 0
32 -20 0
11 -20 0
-9 -32 -11 20 0
31 -21 0
10 -21 0
11 -21 0
-31 -10 -11 21 0
9 -22 0
10 -22 0
11 -22 0
-9 -10 -11 22 0
15 -23 0
1 -23 0
-15 -1 23 0
16 -24 0
2 -24 0
-16 -2 24 0
17 -25 0
3 -25 0
-17 -3 25 0
18 -26 0
4 -26 0
-18 -4 26 0
19 -27 0
5 -27 0
-19 -5 27 0
20 -28 0
6 -28 0
-20 -6 28 0
21 -29 0
7 -29 0
-21 -7 29 0
22 -30 0
8 -30 0
-22 -8 30 0
-23 12 0
-24 12 0
-25 12 0
-26 12 0
-27 12 0
-28 12 0
-29 12 0
-30 12 0
23 24 25 26 27 28 29 30 -12 0
